[2026-03-24T00:33:29.195Z] Pipeline "set_set_set_s003_g002" → 2026_03_24_00_33_29_set_set_set_s003_g002_max.sol
Set parameter WLSAccessID
Set parameter WLSSecret
Set parameter LicenseID to value 2792458
Set parameter LogFile to value "gurobi.log"
Using license file /root/gurobi.lic
Academic license 2792458 - for non-commercial use only - registered to an___@studenti.unipg.it

Gurobi Optimizer version 13.0.1 build v13.0.1rc0 (linux64 - "Ubuntu 24.04.4 LTS")
Copyright (c) 2026, Gurobi Optimization, LLC

Warning: Duplicate section found (read 'binary') - Is a variable name equal to an LP file format keyword?
Warning: Duplicate section found (read 'binary') - Is a variable name equal to an LP file format keyword?
Warning: Duplicate section found (read 'binary') - Is a variable name equal to an LP file format keyword?
Warning: Duplicate section found (read 'binary') - Is a variable name equal to an LP file format keyword?
Warning: Duplicate section found (read 'binary') - Is a variable name equal to an LP file format keyword?
Warning: Duplicate section found (read 'binary') - Is a variable name equal to an LP file format keyword?
Warning: Duplicate section found (read 'binary') - Is a variable name equal to an LP file format keyword?
Warning: Duplicate section found (read 'binary') - Is a variable name equal to an LP file format keyword?
Warning: Duplicate section found (read 'binary') - Is a variable name equal to an LP file format keyword?
Warning: Duplicate section found (read 'binary') - Is a variable name equal to an LP file format keyword?
Warning: Further warnings of this type will be omitted.
Read LP format model from file /root/bgw/data/uploads/2026_03_24_00_33_29_set_set_set_s003_g002_max.lp
Reading time = 0.00 seconds
: 238 rows, 61 columns, 651 nonzeros

Using Gurobi shared library /opt/gurobi1301/linux64/lib/libgurobi.so.13.0.1

CPU model: AMD EPYC-Genoa Processor, instruction set [SSE2|AVX|AVX2|AVX512]
Thread count: 16 physical cores, 16 logical processors, using up to 16 threads

Academic license 2792458 - for non-commercial use only - registered to an___@studenti.unipg.it
Optimize a model with 238 rows, 61 columns and 651 nonzeros (Max)
Model fingerprint: 0xc7731fc0
Model has 6 linear objective coefficients
Variable types: 14 continuous, 47 integer (47 binary)
Coefficient statistics:
  Matrix range     [1e+00, 9e+00]
  Objective range  [1e+00, 1e+00]
  Bounds range     [1e+00, 1e+00]
  RHS range        [1e+00, 1e+01]

Found heuristic solution: objective 6.0000000
Presolve removed 105 rows and 20 columns
Presolve time: 0.00s
Presolved: 133 rows, 41 columns, 424 nonzeros
Variable types: 0 continuous, 41 integer (36 binary)
Found heuristic solution: objective 9.0000000

Root relaxation: objective 2.700000e+01, 31 iterations, 0.00 seconds (0.00 work units)

    Nodes    |    Current Node    |     Objective Bounds      |     Work
 Expl Unexpl |  Obj  Depth IntInf | Incumbent    BestBd   Gap | It/Node Time

     0     0   27.00000    0   14    9.00000   27.00000   200%     -    0s
H    0     0                      17.0000000   27.00000  58.8%     -    0s
     0     0   27.00000    0   12   17.00000   27.00000  58.8%     -    0s
     0     0   24.00000    0    7   17.00000   24.00000  41.2%     -    0s
     0     0   24.00000    0    9   17.00000   24.00000  41.2%     -    0s
     0     0   24.00000    0   13   17.00000   24.00000  41.2%     -    0s
     0     0   24.00000    0   12   17.00000   24.00000  41.2%     -    0s
     0     0   23.00000    0   12   17.00000   23.00000  35.3%     -    0s
     0     0   23.00000    0   12   17.00000   23.00000  35.3%     -    0s
     0     0   23.00000    0   13   17.00000   23.00000  35.3%     -    0s
     0     0   23.00000    0   12   17.00000   23.00000  35.3%     -    0s
     0     0   22.50000    0   14   17.00000   22.50000  32.4%     -    0s
     0     0   22.50000    0   12   17.00000   22.50000  32.4%     -    0s
     0     0   22.00000    0   14   17.00000   22.00000  29.4%     -    0s
     0     0   22.00000    0   12   17.00000   22.00000  29.4%     -    0s
     0     0   22.00000    0   12   17.00000   22.00000  29.4%     -    0s
     0     0   22.00000    0   12   17.00000   22.00000  29.4%     -    0s
     0     2   22.00000    0   12   17.00000   22.00000  29.4%     -    0s

Cutting planes:
  Zero half: 2
  Mod-K: 3

Explored 139 nodes (1000 simplex iterations) in 0.07 seconds (0.02 work units)
Thread count was 16 (of 16 available processors)

Solution count 3: 17 9 6 

Optimal solution found (tolerance 1.00e-04)
Best objective 1.700000000000e+01, best bound 1.700000000000e+01, gap 0.0000%

Wrote result file '/root/bgw/data/results/2026_03_24_00_33_29_set_set_set_s003_g002_max.sol'

